406,131
708,459
761,446
589,121
672,378
681,136
773,121
830,112
996,177
1020,652
1045,670
1006,457
912,-48
681,136
639,140
468,514
681,616
515,919
491,780
515,919
491,780
782,719
977,702
1135,637
829,429
744,343
830,112
885,6
874,140
1071,406
1006,457
829,429
681,616
148,490
708,459
1006,457
732,81
639,140
196,249
406,131
